25
1 0 7
2 0 4
2 1 7
3 0 5
3 1 1
3 2 5
4 0 10
4 1 10
4 2 7
4 3 9
5 0 5
5 1 7
5 2 5
5 3 6
5 4 4
6 0 1
6 1 10
6 2 9
6 3 6
6 4 7
6 5 9
7 0 5
7 1 6
7 2 9
7 3 2
7 4 8
7 5 1
7 6 3
8 0 1
8 1 6
8 2 3
8 3 4
8 4 9
8 5 10
8 6 8
8 7 3
9 0 8
9 1 10
9 2 8
9 3 1
9 4 10
9 5 8
9 6 2
9 7 8
9 8 3
10 0 6
10 1 8
10 2 8
10 3 1
10 4 9
10 5 1
10 6 8
10 7 2
10 8 1
10 9 7
11 0 6
11 1 1
11 2 10
11 3 2
11 4 10
11 5 1
11 6 7
11 7 2
11 8 9
11 9 4
11 10 9
12 0 4
12 1 7
12 2 2
12 3 6
12 4 1
12 5 9
12 6 5
12 7 1
12 8 9
12 9 5
12 10 7
12 11 1
13 0 8
13 1 5
13 2 7
13 3 3
13 4 1
13 5 9
13 6 9
13 7 7
13 8 1
13 9 5
13 10 2
13 11 6
13 12 7
14 0 9
14 1 6
14 2 8
14 3 1
14 4 3
14 5 1
14 6 10
14 7 9
14 8 3
14 9 5
14 10 1
14 11 10
14 12 6
14 13 6
15 0 9
15 1 8
15 2 8
15 3 7
15 4 9
15 5 2
15 6 2
15 7 7
15 8 2
15 9 1
15 10 1
15 11 6
15 12 10
15 13 10
15 14 3
16 0 8
16 1 9
16 2 4
16 3 5
16 4 2
16 5 5
16 6 9
16 7 8
16 8 3
16 9 7
16 10 5
16 11 5
16 12 4
16 13 9
16 14 6
16 15 9
17 0 4
17 1 1
17 2 8
17 3 9
17 4 9
17 5 9
17 6 4
17 7 7
17 8 3
17 9 5
17 10 10
17 11 1
17 12 8
17 13 10
17 14 1
17 15 3
17 16 5
18 0 6
18 1 2
18 2 2
18 3 2
18 4 1
18 5 7
18 6 1
18 7 10
18 8 8
18 9 8
18 10 10
18 11 5
18 12 2
18 13 5
18 14 9
18 15 1
18 16 8
18 17 7
19 0 2
19 1 6
19 2 6
19 3 5
19 4 8
19 5 5
19 6 7
19 7 7
19 8 2
19 9 3
19 10 6
19 11 1
19 12 7
19 13 4
19 14 2
19 15 4
19 16 5
19 17 1
19 18 5
20 0 7
20 1 4
20 2 10
20 3 10
20 4 10
20 5 9
20 6 5
20 7 8
20 8 6
20 9 3
20 10 6
20 11 8
20 12 7
20 13 1
20 14 4
20 15 6
20 16 9
20 17 7
20 18 10
20 19 4
21 0 8
21 1 3
21 2 4
21 3 4
21 4 2
21 5 8
21 6 9
21 7 7
21 8 2
21 9 6
21 10 1
21 11 9
21 12 9
21 13 4
21 14 9
21 15 7
21 16 7
21 17 4
21 18 7
21 19 4
21 20 8
22 0 6
22 1 7
22 2 7
22 3 2
22 4 6
22 5 3
22 6 8
22 7 5
22 8 7
22 9 3
22 10 2
22 11 1
22 12 6
22 13 9
22 14 1
22 15 4
22 16 1
22 17 3
22 18 8
22 19 3
22 20 8
22 21 4
23 0 3
23 1 10
23 2 1
23 3 2
23 4 8
23 5 9
23 6 9
23 7 5
23 8 7
23 9 1
23 10 1
23 11 5
23 12 7
23 13 6
23 14 1
23 15 5
23 16 2
23 17 2
23 18 2
23 19 4
23 20 2
23 21 8
23 22 8
24 0 3
24 1 9
24 2 8
24 3 6
24 4 5
24 5 10
24 6 1
24 7 7
24 8 8
24 9 6
24 10 9
24 11 7
24 12 6
24 13 8
24 14 5
24 15 9
24 16 6
24 17 3
24 18 6
24 19 5
24 20 2
24 21 8
24 22 10
24 23 2
